p edge 75 268
e 1 36
e 1 41
e 1 56
e 1 61
e 1 70
e 1 75
e 2 17
e 2 29
e 2 34
e 2 37
e 2 39
e 2 42
e 2 46
e 2 53
e 2 60
e 2 71
e 2 73
e 3 12
e 3 13
e 3 14
e 3 19
e 3 31
e 3 52
e 3 57
e 3 60
e 3 69
e 3 70
e 3 73
e 4 24
e 4 47
e 4 63
e 4 65
e 4 67
e 5 7
e 5 29
e 5 64
e 5 67
e 6 18
e 6 21
e 6 32
e 6 48
e 6 51
e 6 56
e 6 70
e 6 72
e 7 12
e 7 33
e 7 34
e 7 36
e 7 41
e 7 45
e 7 49
e 7 58
e 7 74
e 8 10
e 8 26
e 8 28
e 8 33
e 8 71
e 8 72
e 9 20
e 9 22
e 9 27
e 9 35
e 9 60
e 9 75
e 10 13
e 10 26
e 10 40
e 10 41
e 10 52
e 10 65
e 11 16
e 11 18
e 11 23
e 11 31
e 11 32
e 11 40
e 11 49
e 11 66
e 12 13
e 12 26
e 12 32
e 12 35
e 12 57
e 12 59
e 13 45
e 13 73
e 13 75
e 14 45
e 14 56
e 14 67
e 15 35
e 15 44
e 15 57
e 15 70
e 15 72
e 16 24
e 16 43
e 16 44
e 16 47
e 16 61
e 16 67
e 17 20
e 17 30
e 17 31
e 17 33
e 17 42
e 17 71
e 17 74
e 18 26
e 18 32
e 18 41
e 18 64
e 19 39
e 19 56
e 19 69
e 19 72
e 20 30
e 20 44
e 20 52
e 20 67
e 20 68
e 21 47
e 21 64
e 21 72
e 22 23
e 22 25
e 22 26
e 22 31
e 22 48
e 22 50
e 22 58
e 22 68
e 22 73
e 23 36
e 23 50
e 23 72
e 24 44
e 24 60
e 24 62
e 25 29
e 25 58
e 25 63
e 25 66
e 25 70
e 26 29
e 26 36
e 26 41
e 26 53
e 26 57
e 26 68
e 26 74
e 27 28
e 27 33
e 27 37
e 27 43
e 27 47
e 27 50
e 27 59
e 27 62
e 27 75
e 28 37
e 28 40
e 28 43
e 28 60
e 29 46
e 29 54
e 29 72
e 30 52
e 30 53
e 30 55
e 30 57
e 30 60
e 30 68
e 30 73
e 30 75
e 31 45
e 31 52
e 31 63
e 31 67
e 32 35
e 32 45
e 32 63
e 32 65
e 33 44
e 33 45
e 33 63
e 33 67
e 33 71
e 34 37
e 34 41
e 34 65
e 34 66
e 34 75
e 35 39
e 35 55
e 36 47
e 36 53
e 36 55
e 36 56
e 36 62
e 36 75
e 37 38
e 37 57
e 37 71
e 38 49
e 38 50
e 38 56
e 38 58
e 38 62
e 38 63
e 39 55
e 40 62
e 40 70
e 40 71
e 40 73
e 41 43
e 41 52
e 41 65
e 42 43
e 42 72
e 43 65
e 44 53
e 45 54
e 45 56
e 45 72
e 46 51
e 46 57
e 46 64
e 47 54
e 48 49
e 48 54
e 48 55
e 48 73
e 49 71
e 49 74
e 50 53
e 50 54
e 50 75
e 51 57
e 51 66
e 51 72
e 52 71
e 53 58
e 53 66
e 53 67
e 53 69
e 54 55
e 54 62
e 55 57
e 55 60
e 55 63
e 57 62
e 57 73
e 58 60
e 59 65
e 59 70
e 62 64
e 62 68
e 63 70
e 66 73
e 67 71
e 69 70
e 69 74
e 71 75
e 72 73
e 74 75
